Copyright (C) 2013-2015, Filipe Brandao
Build (method = -2)
  #dp: 25868
  Step-3' Graph: 241 vertices and 9581 arcs (0.04s)
  Step-4' Graph: 222 vertices and 9543 arcs (0.04s)
  #V4/#V3 = 0.92
  #A4/#A3 = 1.00
Ready! (0.04s)
Optimize a model with 421 rows, 9544 columns and 28193 nonzeros
Presolve removed 81 rows and 104 columns
Presolve time: 0.05s
Presolved: 340 rows, 9440 columns, 27659 nonzeros
Variable types: 0 continuous, 9440 integer (1266 binary)
Found heuristic solution: objective 640.0000000
Optimize a model with 340 rows, 9440 columns and 27659 nonzeros
Presolved: 340 rows, 9440 columns, 27659 nonzeros

Root barrier log...

Ordering time: 0.00s

Barrier statistics:
 AA' NZ     : 1.498e+04
 Factor NZ  : 2.794e+04 (roughly 4 MBytes of memory)
 Factor Ops : 3.359e+06 (less than 1 second per iteration)
 Threads    : 1

                  Objective                Residual
Iter       Primal          Dual         Primal    Dual     Compl     Time
   0   2.83476451e+04 -2.63034501e+05  4.41e+05 1.18e-01  1.75e+02     0s
   1   8.69373024e+03 -6.29468217e+04  7.59e+04 8.88e-16  3.07e+01     0s
   2   1.83821442e+03 -2.44071433e+04  7.97e+03 9.10e-15  4.00e+00     0s
   3   8.88882140e+02 -6.49084227e+03  6.51e+02 1.95e-14  5.42e-01     0s
   4   7.47869169e+02 -2.87650348e+03  1.67e+02 8.33e-15  2.21e-01     0s
   5   7.02058362e+02 -2.21863670e+03  9.60e+01 6.66e-15  1.70e-01     0s
   6   6.14574928e+02 -1.32630363e+03  6.58e+01 3.89e-15  1.12e-01     0s
   7   5.03309580e+02 -5.56768457e+02  2.38e+01 2.11e-15  5.88e-02     0s
   8   4.26070533e+02 -2.03271136e+02  9.05e+00 1.22e-15  3.41e-02     0s
   9   3.83256368e+02  1.08039172e+01  3.03e+00 8.88e-16  1.99e-02     0s
  10   3.61355442e+02  2.27009567e+02  1.14e+00 4.44e-16  7.14e-03     0s
  11   3.53151387e+02  2.71352571e+02  3.51e-01 3.33e-16  4.32e-03     0s
  12   3.46777108e+02  2.87827917e+02  1.43e-01 4.36e-16  3.11e-03     0s
  13   3.43657172e+02  3.17907772e+02  5.87e-02 3.96e-16  1.36e-03     0s
  14   3.41661433e+02  3.29805930e+02  1.69e-02 3.54e-16  6.25e-04     0s
  15   3.40775783e+02  3.36612672e+02  4.10e-03 3.33e-16  2.19e-04     0s
  16   3.40504922e+02  3.39947125e+02  9.96e-04 3.33e-16  2.94e-05     0s
  17   3.40409782e+02  3.40384081e+02  4.55e-05 3.56e-16  1.35e-06     0s
  18   3.40400033e+02  3.40399926e+02  4.25e-12 3.33e-16  5.64e-09     0s
  19   3.40400000e+02  3.40400000e+02  5.85e-12 3.44e-16  6.17e-15     0s

Barrier solved model in 19 iterations and 0.09 seconds
Optimal objective 3.40400000e+02


Root relaxation: objective 3.404000e+02, 2829 iterations, 0.11 seconds

    Nodes    |    Current Node    |     Objective Bounds      |     Work
 Expl Unexpl |  Obj  Depth IntInf | Incumbent    BestBd   Gap | It/Node Time

     0     0  340.40000    0   71  640.00000  340.40000  46.8%     -    0s
H    0     0                     342.0000000  340.40000  0.47%     -    0s
H    0     0                     341.0000000  340.40000  0.18%     -    0s

Explored 0 nodes (3893 simplex iterations) in 0.39 seconds
Thread count was 1 (of 4 available processors)

Optimal solution found (tolerance 0.00e+00)
Best objective 3.410000000000e+02, best bound 3.410000000000e+02, gap 0.0%
Preprocessing time: 0.06 seconds
Gurobi run time: 0.39 seconds
Total run time: 0.45 seconds
Objective: 341
Solution:
4 x [i=1, i=170]
4 x [i=2, i=161]
2 x [i=2, i=165]
1 x [i=3, i=159]
3 x [i=3, i=164]
1 x [i=4, i=157]
6 x [i=4, i=167]
2 x [i=5, i=168]
3 x [i=6, i=157]
1 x [i=7, i=154]
1 x [i=8, i=156]
1 x [i=9, i=165]
2 x [i=10, i=153]
4 x [i=11, i=150]
1 x [i=11, i=153]
1 x [i=11, i=168]
4 x [i=12, i=151]
1 x [i=12, i=171]
3 x [i=13, i=149]
3 x [i=14, i=152]
1 x [i=15, i=146]
4 x [i=15, i=147]
3 x [i=16, i=145]
2 x [i=16, i=146]
5 x [i=17, i=144]
1 x [i=17, i=148]
3 x [i=18, i=143]
2 x [i=19, i=143]
3 x [i=20, i=142]
3 x [i=21, i=140]
6 x [i=22, i=141]
3 x [i=23, i=139]
2 x [i=24, i=141]
3 x [i=25, i=136]
4 x [i=26, i=137]
6 x [i=27, i=138]
2 x [i=28, i=133]
1 x [i=28, i=140]
1 x [i=28, i=143]
1 x [i=29, i=132]
2 x [i=29, i=135]
1 x [i=30, i=131]
4 x [i=30, i=134]
1 x [i=30, i=148]
6 x [i=31, i=130]
1 x [i=32, i=129]
3 x [i=33, i=128]
2 x [i=34, i=129]
4 x [i=35, i=127]
3 x [i=36, i=125]
1 x [i=36, i=128]
1 x [i=37, i=124]
5 x [i=37, i=126]
1 x [i=38, i=123]
7 x [i=39, i=124]
4 x [i=40, i=121]
2 x [i=40, i=122]
1 x [i=40, i=123]
1 x [i=41]
4 x [i=41, i=120]
1 x [i=41, i=151]
2 x [i=42, i=119]
1 x [i=43, i=118]
5 x [i=43, i=119]
1 x [i=44, i=117]
4 x [i=44, i=197, i=198]
3 x [i=45, i=116]
1 x [i=45, i=196, i=198]
1 x [i=45, i=199, i=199]
5 x [i=46, i=115]
1 x [i=46, i=196, i=197]
2 x [i=47, i=114]
2 x [i=47, i=195, i=198]
2 x [i=47, i=196, i=196]
1 x [i=48, i=113]
2 x [i=49, i=111]
2 x [i=49, i=112]
1 x [i=50, i=110]
3 x [i=50, i=111]
5 x [i=51, i=109]
1 x [i=51, i=110]
1 x [i=52, i=108]
2 x [i=53, i=107]
4 x [i=53, i=108]
1 x [i=54, i=106]
4 x [i=55, i=106]
5 x [i=56, i=104]
2 x [i=57, i=103]
3 x [i=57, i=106]
3 x [i=58, i=105]
3 x [i=59, i=101]
2 x [i=60, i=100]
1 x [i=60, i=188, i=192]
2 x [i=61, i=99]
3 x [i=62, i=98]
1 x [i=62, i=185, i=194]
1 x [i=63, i=97]
2 x [i=63, i=189, i=189]
3 x [i=64, i=96]
2 x [i=64, i=97]
3 x [i=65, i=95]
1 x [i=65, i=108]
2 x [i=66, i=94]
1 x [i=67, i=185, i=188]
3 x [i=68, i=92]
2 x [i=68, i=93]
4 x [i=69, i=91]
2 x [i=70, i=178, i=194]
2 x [i=71, i=89]
4 x [i=71, i=91]
2 x [i=71, i=182, i=187]
2 x [i=72, i=88]
1 x [i=72, i=92]
2 x [i=73, i=183, i=184]
1 x [i=73, i=183, i=185]
3 x [i=74, i=176, i=190]
1 x [i=75, i=86]
1 x [i=75, i=178, i=188]
4 x [i=75, i=182, i=185]
1 x [i=76, i=84]
4 x [i=76, i=85]
1 x [i=76, i=182, i=182]
2 x [i=77, i=83]
1 x [i=77, i=172, i=191]
3 x [i=78, i=82]
1 x [i=78, i=83]
2 x [i=79, i=81]
1 x [i=79, i=169, i=193]
3 x [i=79, i=175, i=188]
3 x [i=80, i=80]
1 x [i=87, i=106]
3 x [i=90, i=173, i=177]
2 x [i=93, i=173, i=175]
2 x [i=94, i=160, i=186]
2 x [i=95, i=165, i=180]
1 x [i=96, i=155, i=189]
1 x [i=99, i=150, i=192]
2 x [i=100, i=150, i=192]
2 x [i=102, i=158, i=181]
1 x [i=103, i=162, i=175]
1 x [i=104, i=166, i=172]
2 x [i=105, i=163, i=179]
1 x [i=106, i=166, i=172]
1 x [i=108, i=162, i=170]
2 x [i=111, i=159, i=171]
1 x [i=163, i=179, i=195]
1 x [i=171, i=173, i=183, i=193]
2 x [i=174, i=178, i=181, i=191]
1 x [i=178, i=178, i=181, i=194]
